N = 9;
H = 5;
T = 2;

avail = array3d(1..N, 1..H, 1..T, [5, 9, 3, 0, 3, 3, 6, 3, 4, 5, 6, 3, 6, 7, 8, 6, 8, 8, 5, 0, 4, 8, 10, 3, 9, 3, 2, 10, 7, 10, 1, 4, 1, 8, 8, 4, 9, 2, 4, 7, 1, 5, 6, 0, 8, 7, 8, 10, 6, 0, 6, 2, 8, 6, 5, 0, 0, 2, 7, 9, 8, 0, 1, 0, 6, 1, 6, 10, 2, 8, 6, 3, 2, 2, 2, 4, 0, 1, 1, 5, 8, 8, 6, 7, 0, 5, 8, 2, 2, 1]);

r = array2d(1..H, 1..T, [1, 1, 2, 1, 4, 3, 1, 3, 2, 0]);
